(declare-const delta_y Int)
(declare-const delta_a Int)
(declare-const delta_tmp___0 Int)
(declare-const delta_x Int)
(assert (exists
         ((|tmp___0'?1| Int) (|a'?2| Int) (|y'?3| Int) (|x'?4| Int)
            (phi_y?5 Int) (phi_x?6 Int) (phi_a?7 Int) (phi_y?8 Int)
            (phi_x?9 Int) (havoc?10 Int) (a?11 Int) (x?12 Int) (y?13 Int)
            (tmp___0?14 Int) (flag?15 Int))
         (and (<= (- a?11) 0) (< (- x?12) 0) (< (- y?13) 0)
                (or (< havoc?10 0) (< 0 havoc?10))
                (or (and (or (< flag?15 0) (< 0 flag?15))
                           (= (+ (- phi_x?9) x?12 1) 0)
                           (= (+ (- phi_y?8) y?13) 0)
                           (= (+ (- phi_a?7) y?13 x?12) 0))
                      (and (= flag?15 0) (= (+ (- phi_x?9) x?12) 0)
                             (= (+ (- phi_y?8) y?13 1) 0)
                             (= (+ (- phi_a?7) y?13 x?12 1) 0)))
                (or (and (= (+ (mod phi_a?7 2) -1) 0)
                           (= (+ (- phi_x?6) phi_x?9) 0)
                           (= (+ (- phi_y?5) phi_y?8 1) 0))
                      (and (or (< (+ (mod phi_a?7 2) -1) 0)
                                 (< 0 (+ (mod phi_a?7 2) -1)))
                             (= (+ (- phi_x?6) phi_x?9 1) 0)
                             (= (+ (- phi_y?5) phi_y?8) 0)))
                (= (+ |tmp___0'?1| (- havoc?10)) 0)
                (= (+ |a'?2| (- phi_a?7)) 0) (= (+ |y'?3| (- phi_y?5)) 0)
                (= (+ |x'?4| (- phi_x?6)) 0) (= delta_x (+ |x'?4| (- x?12)))
                (= delta_y (+ |y'?3| (- y?13)))
                (= delta_a (+ |a'?2| (- a?11)))
                (= delta_tmp___0 (+ |tmp___0'?1| (- tmp___0?14))))))
(check-sat)
